(set-info :source |printed by MathSAT|)
(declare-fun |!{$(in_main#0)<a1.1>}| () (Array Int Int))
(declare-fun |!{$(in_main#0)<a1.1>}.next| () (Array Int Int))
(declare-fun |!{$(in_main#0)<a6.2>}| () (Array Int Int))
(declare-fun |!{$(in_main#0)<a6.2>}.next| () (Array Int Int))
(declare-fun |!{$(in_main#0)<a2.3>}| () (Array Int Int))
(declare-fun |!{$(in_main#0)<a2.3>}.next| () (Array Int Int))
(declare-fun |!{$(in_main#0)<a3.4>}| () (Array Int Int))
(declare-fun |!{$(in_main#0)<a3.4>}.next| () (Array Int Int))
(declare-fun |!{$(in_main#0)<a4.5>}| () (Array Int Int))
(declare-fun |!{$(in_main#0)<a4.5>}.next| () (Array Int Int))
(declare-fun |!{$(in_main#0)<a5.6>}| () (Array Int Int))
(declare-fun |!{$(in_main#0)<a5.6>}.next| () (Array Int Int))
(declare-fun |!{$(in_main#0)<a7.7>}| () (Array Int Int))
(declare-fun |!{$(in_main#0)<a7.7>}.next| () (Array Int Int))
(declare-fun |!{$(in_main#0)<N>}| () Int)
(declare-fun |!{$(in_main#0)<N>}.next| () Int)
(declare-fun |!{$(in_main#0)<a>}| () Int)
(declare-fun |!{$(in_main#0)<a>}.next| () Int)
(declare-fun |!{$(in_main#0)<i>}| () Int)
(declare-fun |!{$(in_main#0)<i>}.next| () Int)
(declare-fun |!{$(in_main#0)<x>}| () Int)
(declare-fun |!{$(in_main#0)<x>}.next| () Int)
(declare-fun |!{$(in_main#0)<$(in___VERIFIER_nondet_int#0)<h#<__VERIFIER_nondet_int.return>>>}| () Int)
(declare-fun |!{$(in_main#0)<$(in___VERIFIER_nondet_int#1)<h#<__VERIFIER_nondet_int.return>>>}| () Int)
(declare-fun |!{$(in_main#0)<$(in___VERIFIER_nondet_int#2)<h#<__VERIFIER_nondet_int.return>>>}| () Int)
(declare-fun !pc () Int)
(declare-fun !pc.next () Int)
(declare-fun |%{$(in_main#0)<i>}#1| () Int)
(declare-fun |%{$(in_main#0)<x>}#1| () Int)
(declare-fun |%{$(in_main#0)<a1.1>}#1| () (Array Int Int))
(declare-fun |%{$(in_main#0)<a6.2>}#1| () (Array Int Int))
(declare-fun |%{$(in_main#0)<a2.3>}#1| () (Array Int Int))
(declare-fun |%{$(in_main#0)<a3.4>}#1| () (Array Int Int))
(declare-fun |%{$(in_main#0)<a4.5>}#1| () (Array Int Int))
(declare-fun |%{$(in_main#0)<a5.6>}#1| () (Array Int Int))
(declare-fun |%{$(in_main#0)<a7.7>}#1| () (Array Int Int))
(define-fun .def_52 () Int (! !pc :next !pc.next))
(define-fun .def_55 () Bool (! (= .def_52 2) :init true))
(define-fun .def_329 () Bool (= .def_52 39))
(define-fun .def_300 () Bool (= !pc.next 68))
(define-fun .def_332 () Bool (and .def_300 .def_329))
(define-fun .def_24 () Int (! |!{$(in_main#0)<a>}| :next |!{$(in_main#0)<a>}.next|))
(define-fun .def_22 () Int (! |!{$(in_main#0)<N>}| :next |!{$(in_main#0)<N>}.next|))
(define-fun .def_307 () Bool (<= .def_22 .def_24))
(define-fun .def_212 () Bool (= |!{$(in_main#0)<i>}.next| 0))
(define-fun .def_10 () (Array Int Int) (! |!{$(in_main#0)<a6.2>}| :next |!{$(in_main#0)<a6.2>}.next|))
(define-fun .def_111 () Bool (= .def_10 |!{$(in_main#0)<a6.2>}.next|))
(define-fun .def_8 () (Array Int Int) (! |!{$(in_main#0)<a1.1>}| :next |!{$(in_main#0)<a1.1>}.next|))
(define-fun .def_109 () Bool (= .def_8 |!{$(in_main#0)<a1.1>}.next|))
(define-fun .def_132 () Bool (and .def_109 .def_111))
(define-fun .def_12 () (Array Int Int) (! |!{$(in_main#0)<a2.3>}| :next |!{$(in_main#0)<a2.3>}.next|))
(define-fun .def_113 () Bool (= .def_12 |!{$(in_main#0)<a2.3>}.next|))
(define-fun .def_133 () Bool (and .def_113 .def_132))
(define-fun .def_14 () (Array Int Int) (! |!{$(in_main#0)<a3.4>}| :next |!{$(in_main#0)<a3.4>}.next|))
(define-fun .def_115 () Bool (= .def_14 |!{$(in_main#0)<a3.4>}.next|))
(define-fun .def_134 () Bool (and .def_115 .def_133))
(define-fun .def_16 () (Array Int Int) (! |!{$(in_main#0)<a4.5>}| :next |!{$(in_main#0)<a4.5>}.next|))
(define-fun .def_117 () Bool (= .def_16 |!{$(in_main#0)<a4.5>}.next|))
(define-fun .def_135 () Bool (and .def_117 .def_134))
(define-fun .def_18 () (Array Int Int) (! |!{$(in_main#0)<a5.6>}| :next |!{$(in_main#0)<a5.6>}.next|))
(define-fun .def_119 () Bool (= .def_18 |!{$(in_main#0)<a5.6>}.next|))
(define-fun .def_136 () Bool (and .def_119 .def_135))
(define-fun .def_20 () (Array Int Int) (! |!{$(in_main#0)<a7.7>}| :next |!{$(in_main#0)<a7.7>}.next|))
(define-fun .def_121 () Bool (= .def_20 |!{$(in_main#0)<a7.7>}.next|))
(define-fun .def_137 () Bool (and .def_121 .def_136))
(define-fun .def_123 () Bool (= .def_22 |!{$(in_main#0)<N>}.next|))
(define-fun .def_138 () Bool (and .def_123 .def_137))
(define-fun .def_125 () Bool (= .def_24 |!{$(in_main#0)<a>}.next|))
(define-fun .def_139 () Bool (and .def_125 .def_138))
(define-fun .def_213 () Bool (and .def_139 .def_212))
(define-fun .def_28 () Int (! |!{$(in_main#0)<x>}| :next |!{$(in_main#0)<x>}.next|))
(define-fun .def_129 () Bool (= .def_28 |!{$(in_main#0)<x>}.next|))
(define-fun .def_214 () Bool (and .def_129 .def_213))
(define-fun .def_328 () Bool (and .def_214 .def_307))
(define-fun .def_333 () Bool (and .def_328 .def_332))
(define-fun .def_95 () Bool (= !pc.next 39))
(define-fun .def_330 () Bool (and .def_95 .def_329))
(define-fun .def_321 () Int (* (- 1) |!{$(in_main#0)<a>}.next|))
(define-fun .def_322 () Int (+ .def_24 .def_321))
(define-fun .def_323 () Bool (= .def_322 (- 1)))
(define-fun .def_310 () (Array Int Int) (store .def_10 .def_24 |!{$(in_main#0)<$(in___VERIFIER_nondet_int#2)<h#<__VERIFIER_nondet_int.return>>>}|))
(define-fun .def_313 () Bool (= |!{$(in_main#0)<a6.2>}.next| .def_310))
(define-fun .def_309 () (Array Int Int) (store .def_8 .def_24 |!{$(in_main#0)<$(in___VERIFIER_nondet_int#1)<h#<__VERIFIER_nondet_int.return>>>}|))
(define-fun .def_312 () Bool (= |!{$(in_main#0)<a1.1>}.next| .def_309))
(define-fun .def_314 () Bool (and .def_312 .def_313))
(define-fun .def_315 () Bool (and .def_113 .def_314))
(define-fun .def_316 () Bool (and .def_115 .def_315))
(define-fun .def_317 () Bool (and .def_117 .def_316))
(define-fun .def_318 () Bool (and .def_119 .def_317))
(define-fun .def_319 () Bool (and .def_121 .def_318))
(define-fun .def_320 () Bool (and .def_123 .def_319))
(define-fun .def_324 () Bool (and .def_320 .def_323))
(define-fun .def_26 () Int (! |!{$(in_main#0)<i>}| :next |!{$(in_main#0)<i>}.next|))
(define-fun .def_127 () Bool (= .def_26 |!{$(in_main#0)<i>}.next|))
(define-fun .def_325 () Bool (and .def_127 .def_324))
(define-fun .def_326 () Bool (and .def_129 .def_325))
(define-fun .def_308 () Bool (not .def_307))
(define-fun .def_327 () Bool (and .def_308 .def_326))
(define-fun .def_331 () Bool (and .def_327 .def_330))
(define-fun .def_334 () Bool (or .def_331 .def_333))
(define-fun .def_299 () Bool (= .def_52 68))
(define-fun .def_278 () Bool (= !pc.next 82))
(define-fun .def_303 () Bool (and .def_278 .def_299))
(define-fun .def_176 () Bool (<= .def_22 .def_26))
(define-fun .def_215 () Bool (and .def_176 .def_214))
(define-fun .def_304 () Bool (and .def_215 .def_303))
(define-fun .def_301 () Bool (and .def_299 .def_300))
(define-fun .def_285 () Int (select .def_8 .def_26))
(define-fun .def_286 () (Array Int Int) (store .def_12 .def_26 .def_285))
(define-fun .def_287 () Bool (= |!{$(in_main#0)<a2.3>}.next| .def_286))
(define-fun .def_288 () Bool (and .def_132 .def_287))
(define-fun .def_289 () Bool (and .def_115 .def_288))
(define-fun .def_290 () Bool (and .def_117 .def_289))
(define-fun .def_291 () Bool (and .def_119 .def_290))
(define-fun .def_292 () Bool (and .def_121 .def_291))
(define-fun .def_293 () Bool (and .def_123 .def_292))
(define-fun .def_294 () Bool (and .def_125 .def_293))
(define-fun .def_185 () Int (* (- 1) |!{$(in_main#0)<i>}.next|))
(define-fun .def_186 () Int (+ .def_26 .def_185))
(define-fun .def_187 () Bool (= .def_186 (- 1)))
(define-fun .def_295 () Bool (and .def_187 .def_294))
(define-fun .def_296 () Bool (and .def_129 .def_295))
(define-fun .def_177 () Bool (not .def_176))
(define-fun .def_297 () Bool (and .def_177 .def_296))
(define-fun .def_302 () Bool (and .def_297 .def_301))
(define-fun .def_305 () Bool (or .def_302 .def_304))
(define-fun .def_277 () Bool (= .def_52 82))
(define-fun .def_257 () Bool (= !pc.next 96))
(define-fun .def_281 () Bool (and .def_257 .def_277))
(define-fun .def_282 () Bool (and .def_215 .def_281))
(define-fun .def_279 () Bool (and .def_277 .def_278))
(define-fun .def_264 () Int (select .def_12 .def_26))
(define-fun .def_265 () (Array Int Int) (store .def_14 .def_26 .def_264))
(define-fun .def_266 () Bool (= |!{$(in_main#0)<a3.4>}.next| .def_265))
(define-fun .def_267 () Bool (and .def_133 .def_266))
(define-fun .def_268 () Bool (and .def_117 .def_267))
(define-fun .def_269 () Bool (and .def_119 .def_268))
(define-fun .def_270 () Bool (and .def_121 .def_269))
(define-fun .def_271 () Bool (and .def_123 .def_270))
(define-fun .def_272 () Bool (and .def_125 .def_271))
(define-fun .def_273 () Bool (and .def_187 .def_272))
(define-fun .def_274 () Bool (and .def_129 .def_273))
(define-fun .def_275 () Bool (and .def_177 .def_274))
(define-fun .def_280 () Bool (and .def_275 .def_279))
(define-fun .def_283 () Bool (or .def_280 .def_282))
(define-fun .def_256 () Bool (= .def_52 96))
(define-fun .def_237 () Bool (= !pc.next 110))
(define-fun .def_260 () Bool (and .def_237 .def_256))
(define-fun .def_261 () Bool (and .def_215 .def_260))
(define-fun .def_258 () Bool (and .def_256 .def_257))
(define-fun .def_244 () Int (select .def_14 .def_26))
(define-fun .def_245 () (Array Int Int) (store .def_16 .def_26 .def_244))
(define-fun .def_246 () Bool (= |!{$(in_main#0)<a4.5>}.next| .def_245))
(define-fun .def_247 () Bool (and .def_134 .def_246))
(define-fun .def_248 () Bool (and .def_119 .def_247))
(define-fun .def_249 () Bool (and .def_121 .def_248))
(define-fun .def_250 () Bool (and .def_123 .def_249))
(define-fun .def_251 () Bool (and .def_125 .def_250))
(define-fun .def_252 () Bool (and .def_187 .def_251))
(define-fun .def_253 () Bool (and .def_129 .def_252))
(define-fun .def_254 () Bool (and .def_177 .def_253))
(define-fun .def_259 () Bool (and .def_254 .def_258))
(define-fun .def_262 () Bool (or .def_259 .def_261))
(define-fun .def_236 () Bool (= .def_52 110))
(define-fun .def_218 () Bool (= !pc.next 124))
(define-fun .def_240 () Bool (and .def_218 .def_236))
(define-fun .def_241 () Bool (and .def_215 .def_240))
(define-fun .def_238 () Bool (and .def_236 .def_237))
(define-fun .def_225 () Int (select .def_16 .def_26))
(define-fun .def_226 () (Array Int Int) (store .def_18 .def_26 .def_225))
(define-fun .def_227 () Bool (= |!{$(in_main#0)<a5.6>}.next| .def_226))
(define-fun .def_228 () Bool (and .def_135 .def_227))
(define-fun .def_229 () Bool (and .def_121 .def_228))
(define-fun .def_230 () Bool (and .def_123 .def_229))
(define-fun .def_231 () Bool (and .def_125 .def_230))
(define-fun .def_232 () Bool (and .def_187 .def_231))
(define-fun .def_233 () Bool (and .def_129 .def_232))
(define-fun .def_234 () Bool (and .def_177 .def_233))
(define-fun .def_239 () Bool (and .def_234 .def_238))
(define-fun .def_242 () Bool (or .def_239 .def_241))
(define-fun .def_217 () Bool (= .def_52 124))
(define-fun .def_196 () Bool (= !pc.next 138))
(define-fun .def_221 () Bool (and .def_196 .def_217))
(define-fun .def_222 () Bool (and .def_215 .def_221))
(define-fun .def_219 () Bool (and .def_217 .def_218))
(define-fun .def_203 () Int (select .def_18 .def_26))
(define-fun .def_204 () (Array Int Int) (store .def_20 .def_26 .def_203))
(define-fun .def_205 () Bool (= |!{$(in_main#0)<a7.7>}.next| .def_204))
(define-fun .def_206 () Bool (and .def_136 .def_205))
(define-fun .def_207 () Bool (and .def_123 .def_206))
(define-fun .def_208 () Bool (and .def_125 .def_207))
(define-fun .def_209 () Bool (and .def_187 .def_208))
(define-fun .def_210 () Bool (and .def_129 .def_209))
(define-fun .def_211 () Bool (and .def_177 .def_210))
(define-fun .def_220 () Bool (and .def_211 .def_219))
(define-fun .def_223 () Bool (or .def_220 .def_222))
(define-fun .def_195 () Bool (= .def_52 138))
(define-fun .def_165 () Bool (= !pc.next 152))
(define-fun .def_199 () Bool (and .def_165 .def_195))
(define-fun .def_191 () Bool (= |!{$(in_main#0)<x>}.next| 0))
(define-fun .def_140 () Bool (and .def_127 .def_139))
(define-fun .def_192 () Bool (and .def_140 .def_191))
(define-fun .def_193 () Bool (and .def_176 .def_192))
(define-fun .def_200 () Bool (and .def_193 .def_199))
(define-fun .def_197 () Bool (and .def_195 .def_196))
(define-fun .def_178 () Int (select .def_10 .def_26))
(define-fun .def_179 () (Array Int Int) (store .def_20 .def_26 .def_178))
(define-fun .def_181 () Bool (= |!{$(in_main#0)<a7.7>}.next| .def_179))
(define-fun .def_182 () Bool (and .def_136 .def_181))
(define-fun .def_183 () Bool (and .def_123 .def_182))
(define-fun .def_184 () Bool (and .def_125 .def_183))
(define-fun .def_188 () Bool (and .def_184 .def_187))
(define-fun .def_189 () Bool (and .def_129 .def_188))
(define-fun .def_190 () Bool (and .def_177 .def_189))
(define-fun .def_198 () Bool (and .def_190 .def_197))
(define-fun .def_201 () Bool (or .def_198 .def_200))
(define-fun .def_169 () Bool (= !pc.next 0))
(define-fun .def_160 () Bool (= .def_52 152))
(define-fun .def_170 () Bool (and .def_160 .def_169))
(define-fun .def_98 () Bool (<= .def_22 .def_28))
(define-fun .def_148 () Bool (and .def_98 .def_109))
(define-fun .def_149 () Bool (and .def_111 .def_148))
(define-fun .def_150 () Bool (and .def_113 .def_149))
(define-fun .def_151 () Bool (and .def_115 .def_150))
(define-fun .def_152 () Bool (and .def_117 .def_151))
(define-fun .def_153 () Bool (and .def_119 .def_152))
(define-fun .def_154 () Bool (and .def_121 .def_153))
(define-fun .def_155 () Bool (and .def_123 .def_154))
(define-fun .def_156 () Bool (and .def_125 .def_155))
(define-fun .def_157 () Bool (and .def_127 .def_156))
(define-fun .def_158 () Bool (and .def_129 .def_157))
(define-fun .def_171 () Bool (and .def_158 .def_170))
(define-fun .def_166 () Bool (and .def_160 .def_165))
(define-fun .def_142 () Int (* (- 1) |!{$(in_main#0)<x>}.next|))
(define-fun .def_143 () Int (+ .def_28 .def_142))
(define-fun .def_144 () Bool (= .def_143 (- 1)))
(define-fun .def_145 () Bool (and .def_140 .def_144))
(define-fun .def_101 () Int (select .def_20 .def_28))
(define-fun .def_100 () Int (select .def_8 .def_28))
(define-fun .def_102 () Bool (= .def_100 .def_101))
(define-fun .def_103 () Int (ite .def_102 1 0))
(define-fun .def_104 () Bool (= .def_103 0))
(define-fun .def_105 () Bool (not .def_104))
(define-fun .def_146 () Bool (and .def_105 .def_145))
(define-fun .def_99 () Bool (not .def_98))
(define-fun .def_147 () Bool (and .def_99 .def_146))
(define-fun .def_167 () Bool (and .def_147 .def_166))
(define-fun .def_162 () Bool (= !pc.next 172))
(define-fun .def_163 () Bool (and .def_160 .def_162))
(define-fun .def_110 () Bool (and .def_104 .def_109))
(define-fun .def_112 () Bool (and .def_110 .def_111))
(define-fun .def_114 () Bool (and .def_112 .def_113))
(define-fun .def_116 () Bool (and .def_114 .def_115))
(define-fun .def_118 () Bool (and .def_116 .def_117))
(define-fun .def_120 () Bool (and .def_118 .def_119))
(define-fun .def_122 () Bool (and .def_120 .def_121))
(define-fun .def_124 () Bool (and .def_122 .def_123))
(define-fun .def_126 () Bool (and .def_124 .def_125))
(define-fun .def_128 () Bool (and .def_126 .def_127))
(define-fun .def_130 () Bool (and .def_128 .def_129))
(define-fun .def_131 () Bool (and .def_99 .def_130))
(define-fun .def_164 () Bool (and .def_131 .def_163))
(define-fun .def_168 () Bool (or .def_164 .def_167))
(define-fun .def_172 () Bool (or .def_168 .def_171))
(define-fun .def_96 () Bool (and .def_55 .def_95))
(define-fun .def_92 () Bool (= |!{$(in_main#0)<x>}.next| |%{$(in_main#0)<x>}#1|))
(define-fun .def_90 () Bool (= |!{$(in_main#0)<i>}.next| |%{$(in_main#0)<i>}#1|))
(define-fun .def_88 () Bool (= |!{$(in_main#0)<a>}.next| 0))
(define-fun .def_86 () Bool (= |!{$(in_main#0)<N>}.next| |!{$(in_main#0)<$(in___VERIFIER_nondet_int#0)<h#<__VERIFIER_nondet_int.return>>>}|))
(define-fun .def_84 () Bool (= |!{$(in_main#0)<a7.7>}.next| |%{$(in_main#0)<a7.7>}#1|))
(define-fun .def_82 () Bool (= |!{$(in_main#0)<a5.6>}.next| |%{$(in_main#0)<a5.6>}#1|))
(define-fun .def_80 () Bool (= |!{$(in_main#0)<a4.5>}.next| |%{$(in_main#0)<a4.5>}#1|))
(define-fun .def_78 () Bool (= |!{$(in_main#0)<a3.4>}.next| |%{$(in_main#0)<a3.4>}#1|))
(define-fun .def_76 () Bool (= |!{$(in_main#0)<a2.3>}.next| |%{$(in_main#0)<a2.3>}#1|))
(define-fun .def_74 () Bool (= |!{$(in_main#0)<a6.2>}.next| |%{$(in_main#0)<a6.2>}#1|))
(define-fun .def_73 () Bool (= |!{$(in_main#0)<a1.1>}.next| |%{$(in_main#0)<a1.1>}#1|))
(define-fun .def_75 () Bool (and .def_73 .def_74))
(define-fun .def_77 () Bool (and .def_75 .def_76))
(define-fun .def_79 () Bool (and .def_77 .def_78))
(define-fun .def_81 () Bool (and .def_79 .def_80))
(define-fun .def_83 () Bool (and .def_81 .def_82))
(define-fun .def_85 () Bool (and .def_83 .def_84))
(define-fun .def_87 () Bool (and .def_85 .def_86))
(define-fun .def_89 () Bool (and .def_87 .def_88))
(define-fun .def_91 () Bool (and .def_89 .def_90))
(define-fun .def_93 () Bool (and .def_91 .def_92))
(define-fun .def_97 () Bool (and .def_93 .def_96))
(define-fun .def_173 () Bool (or .def_97 .def_172))
(define-fun .def_202 () Bool (or .def_173 .def_201))
(define-fun .def_224 () Bool (or .def_202 .def_223))
(define-fun .def_243 () Bool (or .def_224 .def_242))
(define-fun .def_263 () Bool (or .def_243 .def_262))
(define-fun .def_284 () Bool (or .def_263 .def_283))
(define-fun .def_306 () Bool (or .def_284 .def_305))
(define-fun .def_335 () Bool (! (or .def_306 .def_334) :trans true))
(define-fun .def_174 () Bool (= .def_52 172))
(define-fun .def_336 () Bool (! (not .def_174) :invar-property 0 :invar-property-name ||))
(assert true)
